\* FantasyFootball *\
Maximize
Objective: 131.8 x_0 + 102 x_1 + 121.636363636 x_10 + 38.5 x_100 + 89 x_101
 + 92 x_102 + 62 x_103 + 96.9285714286 x_104 + 132.666666667 x_105
 + 134.555555556 x_106 + 92 x_107 + 91.625 x_108 + 96.75 x_109
 + 130.777777778 x_11 + 39.4 x_110 + 91 x_111 + 22.5 x_112 + 86.5 x_113
 + 15.5 x_114 + 31.75 x_115 + 88.6666666667 x_116 + 96.6666666667 x_117
 + 64.3333333333 x_118 + 49.4 x_119 + 1.5 x_12 + 69 x_120 + 17 x_121
 + 11 x_122 + 2 x_123 + 79.2142857143 x_124 + 98.6666666667 x_125 + 21.4 x_126
 + 94 x_127 + 62.6666666667 x_128 + 68 x_129 + 60.25 x_13 + 20.5 x_130
 + 71 x_131 + 62.3333333333 x_132 + 70.4545454545 x_133 + 68.4 x_134
 + 114 x_135 + 130.666666667 x_136 + 129.2 x_137 + 53.4 x_138 + 68 x_139
 + 25 x_14 + 2 x_140 + 12.5 x_141 + 28 x_142 + 58.2 x_143 + 41.5 x_144
 + 62.25 x_145 + 14 x_146 + 25 x_147 + 72.1428571429 x_148
 + 71.1666666667 x_149 + 86 x_15 + 64.5714285714 x_150 + 100.857142857 x_151
 + 65.7777777778 x_152 + 46.6666666667 x_153 + 43.8 x_154 + 128 x_155
 + 68.3333333333 x_156 + 11 x_157 + 58.0769230769 x_158 + 86.7142857143 x_159
 + 140 x_16 + 30.1666666667 x_160 + 31 x_161 + 66.3333333333 x_162 + 93 x_163
 + 77.75 x_164 + 53.2 x_165 + 111.5 x_166 + 86.5 x_167 + 96 x_168
 + 21.6666666667 x_169 + 15 x_17 + 30.5 x_170 + 95 x_171 + 106 x_172
 + 83 x_173 + 19 x_174 + 80.6666666667 x_175 + 109 x_176 + 21.3333333333 x_177
 + 13 x_178 + 54 x_179 + 127.8 x_18 + 99.8333333333 x_180 + 74.625 x_181
 + 54 x_182 + 91.5 x_183 + 51.5555555556 x_184 + 83.25 x_185 + 142 x_186
 + 44.5 x_187 + 28 x_188 + 18.25 x_189 + 2 x_19 + 18.25 x_190 + 35 x_191
 + 66 x_192 + 63.5 x_193 + 26 x_194 + 56 x_195 + 61.6666666667 x_196
 + 61.6666666667 x_197 + 53 x_198 + 46 x_199 + 84.8 x_2 + 78.3636363636 x_20
 + 2 x_200 + 8 x_201 + x_202 + 112.5 x_203 + 50.0666666667 x_204
 + 82.7142857143 x_205 + 18.6666666667 x_206 + 95 x_207 + 65.75 x_208
 + 68 x_209 + 101 x_21 + 7 x_210 + 87 x_211 + 63.8888888889 x_212
 + 96.3333333333 x_213 + 53 x_214 + 80 x_215 + 180.5 x_216 + 119 x_217
 + 45.4 x_218 + 71 x_219 + 6 x_22 + 112.3 x_220 + 22.75 x_221 + 11 x_222
 + 8 x_223 + x_224 + 71.6666666667 x_225 + 99 x_226 + 171 x_227 + 67 x_228
 + 57.5 x_229 + 25.75 x_23 + 24.5 x_230 + 14 x_231 + 133 x_232 + 17 x_233
 + 160 x_234 + 69 x_235 + 39 x_236 + 114.875 x_237 + 85.4 x_238 + 26.6 x_239
 + 74.8571428571 x_24 + 28.3333333333 x_240 + 47 x_241 + 110 x_242 + 62 x_243
 + 39 x_244 + 62 x_245 + 47.5 x_246 + 37.5 x_247 + 12.3333333333 x_248
 + 40 x_249 + 146 x_25 + 31.75 x_250 + 71.1111111111 x_251 + 70.6 x_252
 + 98 x_253 + 45.3333333333 x_254 + 55.75 x_255 + 78 x_256 + 42.5 x_257
 + 18.5 x_258 + x_259 + 10 x_26 + 59.125 x_260 + 163 x_261 + 80.5 x_262
 + 69.8 x_263 + 37 x_264 + 49 x_265 + 44.5 x_266 + 9.5 x_267 + 72 x_268
 + 51.5 x_269 + 70.8333333333 x_27 + 81.5 x_270 + 10 x_271 + 99 x_272
 + 77 x_273 + 35 x_274 + 94 x_275 + 81 x_276 + 28 x_277 + x_278 + 2 x_279
 + 56.4285714286 x_28 + 120.166666667 x_280 + 100.666666667 x_281 + 72.2 x_282
 + 62 x_283 + 87.8333333333 x_284 + 70 x_285 + 38.4285714286 x_286
 + 104.5 x_287 + 142 x_288 + 33 x_289 + 16.7142857143 x_29 + 91 x_290
 + 102 x_291 + 33.6666666667 x_292 + 123.9 x_293 + 101 x_294
 + 60.3333333333 x_295 + 47 x_296 + 50.3333333333 x_297 + 113.25 x_298
 + 72.6666666667 x_299 + 14 x_3 + 20.6 x_30 + 44.1666666667 x_300 + 32 x_301
 + 134.5 x_302 + 80.4444444444 x_303 + 47.5 x_304 + 10 x_305 + 2.5 x_306
 + 64.4166666667 x_307 + 29 x_308 + 45.5 x_309 + 79.3076923077 x_31
 + 104.333333333 x_310 + 107.166666667 x_311 + 131.666666667 x_312
 + 20.5 x_313 + 76.25 x_314 + 78 x_315 + 41.75 x_316 + 99.7333333333 x_317
 + 88.0769230769 x_318 + 55 x_319 + 124 x_32 + 76.8333333333 x_320
 + 52.1 x_321 + 175.428571429 x_322 + 71 x_323 + 205.8 x_324 + 29.5 x_325
 + 44.6666666667 x_326 + 110 x_327 + 31.5 x_328 + 2 x_329 + 130.5 x_33
 + 3 x_330 + 89.8666666667 x_331 + 48.25 x_332 + 99.8571428571 x_333
 + 96 x_334 + 94.375 x_335 + 18.5 x_336 + 14.5 x_337 + 31 x_338 + 43 x_339
 + 49.8333333333 x_34 + 28 x_340 + 89.3076923077 x_341 + 38 x_342
 + 74.6666666667 x_343 + 73 x_344 + 64.3333333333 x_345 + 81 x_346 + 94 x_347
 + 109 x_348 + 18 x_349 + 105.5 x_35 + 71 x_350 + 78.2 x_351 + 99.2 x_352
 + 110.125 x_353 + 64.8571428571 x_354 + 36.3333333333 x_355 + 125 x_356
 + 74.5 x_357 + 81.4444444444 x_358 + 109 x_359 + 101 x_36 + 61.5 x_360
 + 68.75 x_361 + 118 x_362 + 28.3333333333 x_363 + 53 x_364 + 34 x_365
 + 30 x_366 + 21 x_367 + 101.666666667 x_368 + 75 x_369 + 134.333333333 x_37
 + 67 x_370 + 101.666666667 x_371 + 50 x_372 + 23.3333333333 x_373
 + 90.5 x_374 + 9 x_375 + x_376 + 68.8 x_377 + 104.25 x_378
 + 142.428571429 x_379 + 63.1666666667 x_38 + 154.142857143 x_380
 + 159.777777778 x_381 + 119 x_382 + 59.25 x_383 + 91.5 x_384 + 95 x_385
 + 85.875 x_386 + x_387 + 8.5 x_388 + 32 x_389 + 155 x_39 + 19 x_390
 + 77 x_391 + 52 x_392 + 4 x_393 + 111 x_394 + 5 x_395 + 73.8888888889 x_396
 + 35.3636363636 x_397 + 53.6 x_398 + 14.8 x_399 + 154 x_4 + 2 x_40 + 37 x_400
 + 10.5 x_401 + 107 x_402 + 63.7 x_403 + 55.75 x_404 + 78.8888888889 x_405
 + 67.2 x_406 + 47.5 x_407 + 10 x_408 + 78 x_409 + 88.2 x_41
 + 79.1428571429 x_410 + x_411 + 156.857142857 x_412 + 99 x_413
 + 126.333333333 x_414 + 244.333333333 x_415 + 58 x_416 + 76.6666666667 x_417
 + 157 x_418 + 137.75 x_419 + 11 x_42 + 18.5 x_420 + 74.7142857143 x_421
 + 104.833333333 x_422 + 59.3333333333 x_423 + 88.5 x_424 + 76 x_425
 + 159.555555556 x_426 + x_427 + 168 x_428 + 35 x_429 + 90.8571428571 x_43
 + 29 x_430 + 24 x_431 + 99.5 x_432 + 105.222222222 x_433 + 38 x_434
 + 128 x_435 + 77.5 x_436 + 163.571428571 x_437 + 97.6 x_438 + 141.5 x_439
 + 38 x_44 + x_440 + 27.5 x_441 + 121 x_442 + 34.75 x_443 + 178 x_444
 + 69.6666666667 x_445 + 162 x_446 + 42 x_447 + 13 x_448 + 107.5 x_449
 + 93.4285714286 x_45 + 15.75 x_450 + x_451 + 70.5 x_452 + 9 x_453
 + 111.166666667 x_454 + 100.111111111 x_455 + 80.1666666667 x_456 + 15 x_457
 + 118 x_458 + 49.5 x_459 + 30 x_46 + 58 x_460 + 21.5 x_461 + 9 x_462
 + 23.6666666667 x_463 + 139.333333333 x_464 + 72 x_465 + 12.5 x_466
 + 106.6 x_467 + x_468 + 139 x_469 + 155.333333333 x_47 + 3 x_470 + 13 x_471
 + 118.8 x_472 + 77.25 x_473 + 24.6666666667 x_474 + 16 x_475 + 3 x_476
 + 106.166666667 x_477 + 87.1428571429 x_478 + 82.6666666667 x_479 + 2 x_48
 + 36.4 x_480 + 2 x_481 + 2 x_482 + 3 x_49 + 117 x_5 + 59.2 x_50 + 117 x_51
 + 88 x_52 + 69.4444444444 x_53 + 25 x_54 + 7.25 x_55 + 87.5 x_56 + 43.2 x_57
 + 130.333333333 x_58 + 15.5 x_59 + x_6 + 59.5454545455 x_60 + 29.5 x_61
 + 100 x_62 + 50 x_63 + 38 x_64 + 71 x_65 + 69 x_66 + 21 x_67
 + 99.7142857143 x_68 + 61.5 x_69 + 124.5 x_7 + 40.8 x_70 + 69 x_71 + 78 x_72
 + 3.5 x_73 + 104 x_74 + 48 x_75 + 52.6666666667 x_76 + 79.1666666667 x_77
 + 46.7272727273 x_78 + 74.4 x_79 + 51.3333333333 x_8 + 52.2857142857 x_80
 + 42.5 x_81 + 41 x_82 + 59.3333333333 x_83 + 46 x_84 + 77.2857142857 x_85
 + 85.2 x_86 + 101.285714286 x_87 + 76.25 x_88 + 89.75 x_89 + 93.75 x_9
 + 81.4285714286 x_90 + 74.7777777778 x_91 + 73 x_92 + 51.5 x_93 + 89 x_94
 + 15.5 x_95 + 27 x_96 + 48 x_97 + 42 x_98 + 33 x_99
Subject To
Con_EQ1_Goalkeepers: x_0 + x_1 + x_10 + x_11 + x_12 + x_13 + x_14 + x_15
 + x_16 + x_17 + x_18 + x_19 + x_2 + x_20 + x_21 + x_22 + x_23 + x_24 + x_25
 + x_26 + x_27 + x_28 + x_29 + x_3 + x_30 + x_31 + x_32 + x_33 + x_34 + x_35
 + x_36 + x_37 + x_38 + x_39 + x_4 + x_40 + x_41 + x_42 + x_43 + x_44 + x_45
 + x_46 + x_47 + x_48 + x_49 + x_5 + x_50 + x_51 + x_6 + x_7 + x_8 + x_9 = 1
_dummy: __dummy = 0
Con_EQ_AvoidInjuries: __dummy = 0
Con_EQ_DefendersCount: C_def + x_100 + x_101 + x_102 + x_103 + x_104 + x_105
 + x_106 + x_107 + x_108 + x_109 + x_110 + x_111 + x_112 + x_113 + x_114
 + x_115 + x_116 + x_117 + x_118 + x_119 + x_120 + x_121 + x_122 + x_123
 + x_124 + x_125 + x_126 + x_127 + x_128 + x_129 + x_130 + x_131 + x_132
 + x_133 + x_134 + x_135 + x_136 + x_137 + x_138 + x_139 + x_140 + x_141
 + x_142 + x_143 + x_144 + x_145 + x_146 + x_147 + x_148 + x_149 + x_150
 + x_151 + x_152 + x_153 + x_154 + x_155 + x_156 + x_157 + x_158 + x_159
 + x_160 + x_161 + x_162 + x_163 + x_164 + x_165 + x_166 + x_167 + x_168
 + x_169 + x_170 + x_171 + x_172 + x_173 + x_174 + x_175 + x_176 + x_177
 + x_178 + x_179 + x_180 + x_181 + x_182 + x_183 + x_184 + x_185 + x_186
 + x_187 + x_188 + x_189 + x_190 + x_191 + x_192 + x_193 + x_194 + x_195
 + x_196 + x_197 + x_198 + x_199 + x_200 + x_201 + x_202 + x_203 + x_204
 + x_205 + x_206 + x_207 + x_208 + x_209 + x_210 + x_211 + x_52 + x_53 + x_54
 + x_55 + x_56 + x_57 + x_58 + x_59 + x_60 + x_61 + x_62 + x_63 + x_64 + x_65
 + x_66 + x_67 + x_68 + x_69 + x_70 + x_71 + x_72 + x_73 + x_74 + x_75 + x_76
 + x_77 + x_78 + x_79 + x_80 + x_81 + x_82 + x_83 + x_84 + x_85 + x_86 + x_87
 + x_88 + x_89 + x_90 + x_91 + x_92 + x_93 + x_94 + x_95 + x_96 + x_97 + x_98
 + x_99 = 5
Con_EQ_ForwardsCount: C_fwd + x_413 + x_414 + x_415 + x_416 + x_417 + x_418
 + x_419 + x_420 + x_421 + x_422 + x_423 + x_424 + x_425 + x_426 + x_427
 + x_428 + x_429 + x_430 + x_431 + x_432 + x_433 + x_434 + x_435 + x_436
 + x_437 + x_438 + x_439 + x_440 + x_441 + x_442 + x_443 + x_444 + x_445
 + x_446 + x_447 + x_448 + x_449 + x_450 + x_451 + x_452 + x_453 + x_454
 + x_455 + x_456 + x_457 + x_458 + x_459 + x_460 + x_461 + x_462 + x_463
 + x_464 + x_465 + x_466 + x_467 + x_468 + x_469 + x_470 + x_471 + x_472
 + x_473 + x_474 + x_475 + x_476 + x_477 + x_478 + x_479 + x_480 + x_481
 + x_482 = 3
Con_EQ_GoalkeepersCount: C_gk + x_0 + x_1 + x_10 + x_11 + x_12 + x_13 + x_14
 + x_15 + x_16 + x_17 + x_18 + x_19 + x_2 + x_20 + x_21 + x_22 + x_23 + x_24
 + x_25 + x_26 + x_27 + x_28 + x_29 + x_3 + x_30 + x_31 + x_32 + x_33 + x_34
 + x_35 + x_36 + x_37 + x_38 + x_39 + x_4 + x_40 + x_41 + x_42 + x_43 + x_44
 + x_45 + x_46 + x_47 + x_48 + x_49 + x_5 + x_50 + x_51 + x_6 + x_7 + x_8
 + x_9 = 2
Con_EQ_MidfieldersCount: C_mid + x_212 + x_213 + x_214 + x_215 + x_216 + x_217
 + x_218 + x_219 + x_220 + x_221 + x_222 + x_223 + x_224 + x_225 + x_226
 + x_227 + x_228 + x_229 + x_230 + x_231 + x_232 + x_233 + x_234 + x_235
 + x_236 + x_237 + x_238 + x_239 + x_240 + x_241 + x_242 + x_243 + x_244
 + x_245 + x_246 + x_247 + x_248 + x_249 + x_250 + x_251 + x_252 + x_253
 + x_254 + x_255 + x_256 + x_257 + x_258 + x_259 + x_260 + x_261 + x_262
 + x_263 + x_264 + x_265 + x_266 + x_267 + x_268 + x_269 + x_270 + x_271
 + x_272 + x_273 + x_274 + x_275 + x_276 + x_277 + x_278 + x_279 + x_280
 + x_281 + x_282 + x_283 + x_284 + x_285 + x_286 + x_287 + x_288 + x_289
 + x_290 + x_291 + x_292 + x_293 + x_294 + x_295 + x_296 + x_297 + x_298
 + x_299 + x_300 + x_301 + x_302 + x_303 + x_304 + x_305 + x_306 + x_307
 + x_308 + x_309 + x_310 + x_311 + x_312 + x_313 + x_314 + x_315 + x_316
 + x_317 + x_318 + x_319 + x_320 + x_321 + x_322 + x_323 + x_324 + x_325
 + x_326 + x_327 + x_328 + x_329 + x_330 + x_331 + x_332 + x_333 + x_334
 + x_335 + x_336 + x_337 + x_338 + x_339 + x_340 + x_341 + x_342 + x_343
 + x_344 + x_345 + x_346 + x_347 + x_348 + x_349 + x_350 + x_351 + x_352
 + x_353 + x_354 + x_355 + x_356 + x_357 + x_358 + x_359 + x_360 + x_361
 + x_362 + x_363 + x_364 + x_365 + x_366 + x_367 + x_368 + x_369 + x_370
 + x_371 + x_372 + x_373 + x_374 + x_375 + x_376 + x_377 + x_378 + x_379
 + x_380 + x_381 + x_382 + x_383 + x_384 + x_385 + x_386 + x_387 + x_388
 + x_389 + x_390 + x_391 + x_392 + x_393 + x_394 + x_395 + x_396 + x_397
 + x_398 + x_399 + x_400 + x_401 + x_402 + x_403 + x_404 + x_405 + x_406
 + x_407 + x_408 + x_409 + x_410 + x_411 + x_412 = 5
Con_EQ_TeamCount: x_0 + x_1 + x_10 + x_100 + x_101 + x_102 + x_103 + x_104
 + x_105 + x_106 + x_107 + x_108 + x_109 + x_11 + x_110 + x_111 + x_112
 + x_113 + x_114 + x_115 + x_116 + x_117 + x_118 + x_119 + x_12 + x_120
 + x_121 + x_122 + x_123 + x_124 + x_125 + x_126 + x_127 + x_128 + x_129
 + x_13 + x_130 + x_131 + x_132 + x_133 + x_134 + x_135 + x_136 + x_137
 + x_138 + x_139 + x_14 + x_140 + x_141 + x_142 + x_143 + x_144 + x_145
 + x_146 + x_147 + x_148 + x_149 + x_15 + x_150 + x_151 + x_152 + x_153
 + x_154 + x_155 + x_156 + x_157 + x_158 + x_159 + x_16 + x_160 + x_161
 + x_162 + x_163 + x_164 + x_165 + x_166 + x_167 + x_168 + x_169 + x_17
 + x_170 + x_171 + x_172 + x_173 + x_174 + x_175 + x_176 + x_177 + x_178
 + x_179 + x_18 + x_180 + x_181 + x_182 + x_183 + x_184 + x_185 + x_186
 + x_187 + x_188 + x_189 + x_19 + x_190 + x_191 + x_192 + x_193 + x_194
 + x_195 + x_196 + x_197 + x_198 + x_199 + x_2 + x_20 + x_200 + x_201 + x_202
 + x_203 + x_204 + x_205 + x_206 + x_207 + x_208 + x_209 + x_21 + x_210
 + x_211 + x_212 + x_213 + x_214 + x_215 + x_216 + x_217 + x_218 + x_219
 + x_22 + x_220 + x_221 + x_222 + x_223 + x_224 + x_225 + x_226 + x_227
 + x_228 + x_229 + x_23 + x_230 + x_231 + x_232 + x_233 + x_234 + x_235
 + x_236 + x_237 + x_238 + x_239 + x_24 + x_240 + x_241 + x_242 + x_243
 + x_244 + x_245 + x_246 + x_247 + x_248 + x_249 + x_25 + x_250 + x_251
 + x_252 + x_253 + x_254 + x_255 + x_256 + x_257 + x_258 + x_259 + x_26
 + x_260 + x_261 + x_262 + x_263 + x_264 + x_265 + x_266 + x_267 + x_268
 + x_269 + x_27 + x_270 + x_271 + x_272 + x_273 + x_274 + x_275 + x_276
 + x_277 + x_278 + x_279 + x_28 + x_280 + x_281 + x_282 + x_283 + x_284
 + x_285 + x_286 + x_287 + x_288 + x_289 + x_29 + x_290 + x_291 + x_292
 + x_293 + x_294 + x_295 + x_296 + x_297 + x_298 + x_299 + x_3 + x_30 + x_300
 + x_301 + x_302 + x_303 + x_304 + x_305 + x_306 + x_307 + x_308 + x_309
 + x_31 + x_310 + x_311 + x_312 + x_313 + x_314 + x_315 + x_316 + x_317
 + x_318 + x_319 + x_32 + x_320 + x_321 + x_322 + x_323 + x_324 + x_325
 + x_326 + x_327 + x_328 + x_329 + x_33 + x_330 + x_331 + x_332 + x_333
 + x_334 + x_335 + x_336 + x_337 + x_338 + x_339 + x_34 + x_340 + x_341
 + x_342 + x_343 + x_344 + x_345 + x_346 + x_347 + x_348 + x_349 + x_35
 + x_350 + x_351 + x_352 + x_353 + x_354 + x_355 + x_356 + x_357 + x_358
 + x_359 + x_36 + x_360 + x_361 + x_362 + x_363 + x_364 + x_365 + x_366
 + x_367 + x_368 + x_369 + x_37 + x_370 + x_371 + x_372 + x_373 + x_374
 + x_375 + x_376 + x_377 + x_378 + x_379 + x_38 + x_380 + x_381 + x_382
 + x_383 + x_384 + x_385 + x_386 + x_387 + x_388 + x_389 + x_39 + x_390
 + x_391 + x_392 + x_393 + x_394 + x_395 + x_396 + x_397 + x_398 + x_399 + x_4
 + x_40 + x_400 + x_401 + x_402 + x_403 + x_404 + x_405 + x_406 + x_407
 + x_408 + x_409 + x_41 + x_410 + x_411 + x_412 + x_413 + x_414 + x_415
 + x_416 + x_417 + x_418 + x_419 + x_42 + x_420 + x_421 + x_422 + x_423
 + x_424 + x_425 + x_426 + x_427 + x_428 + x_429 + x_43 + x_430 + x_431
 + x_432 + x_433 + x_434 + x_435 + x_436 + x_437 + x_438 + x_439 + x_44
 + x_440 + x_441 + x_442 + x_443 + x_444 + x_445 + x_446 + x_447 + x_448
 + x_449 + x_45 + x_450 + x_451 + x_452 + x_453 + x_454 + x_455 + x_456
 + x_457 + x_458 + x_459 + x_46 + x_460 + x_461 + x_462 + x_463 + x_464
 + x_465 + x_466 + x_467 + x_468 + x_469 + x_47 + x_470 + x_471 + x_472
 + x_473 + x_474 + x_475 + x_476 + x_477 + x_478 + x_479 + x_48 + x_480
 + x_481 + x_482 + x_49 + x_5 + x_50 + x_51 + x_52 + x_53 + x_54 + x_55 + x_56
 + x_57 + x_58 + x_59 + x_6 + x_60 + x_61 + x_62 + x_63 + x_64 + x_65 + x_66
 + x_67 + x_68 + x_69 + x_7 + x_70 + x_71 + x_72 + x_73 + x_74 + x_75 + x_76
 + x_77 + x_78 + x_79 + x_8 + x_80 + x_81 + x_82 + x_83 + x_84 + x_85 + x_86
 + x_87 + x_88 + x_89 + x_9 + x_90 + x_91 + x_92 + x_93 + x_94 + x_95 + x_96
 + x_97 + x_98 + x_99 = 11
Con_GE1_Forwards: x_413 + x_414 + x_415 + x_416 + x_417 + x_418 + x_419
 + x_420 + x_421 + x_422 + x_423 + x_424 + x_425 + x_426 + x_427 + x_428
 + x_429 + x_430 + x_431 + x_432 + x_433 + x_434 + x_435 + x_436 + x_437
 + x_438 + x_439 + x_440 + x_441 + x_442 + x_443 + x_444 + x_445 + x_446
 + x_447 + x_448 + x_449 + x_450 + x_451 + x_452 + x_453 + x_454 + x_455
 + x_456 + x_457 + x_458 + x_459 + x_460 + x_461 + x_462 + x_463 + x_464
 + x_465 + x_466 + x_467 + x_468 + x_469 + x_470 + x_471 + x_472 + x_473
 + x_474 + x_475 + x_476 + x_477 + x_478 + x_479 + x_480 + x_481 + x_482 >= 1
Con_GE3_Defenders: x_100 + x_101 + x_102 + x_103 + x_104 + x_105 + x_106
 + x_107 + x_108 + x_109 + x_110 + x_111 + x_112 + x_113 + x_114 + x_115
 + x_116 + x_117 + x_118 + x_119 + x_120 + x_121 + x_122 + x_123 + x_124
 + x_125 + x_126 + x_127 + x_128 + x_129 + x_130 + x_131 + x_132 + x_133
 + x_134 + x_135 + x_136 + x_137 + x_138 + x_139 + x_140 + x_141 + x_142
 + x_143 + x_144 + x_145 + x_146 + x_147 + x_148 + x_149 + x_150 + x_151
 + x_152 + x_153 + x_154 + x_155 + x_156 + x_157 + x_158 + x_159 + x_160
 + x_161 + x_162 + x_163 + x_164 + x_165 + x_166 + x_167 + x_168 + x_169
 + x_170 + x_171 + x_172 + x_173 + x_174 + x_175 + x_176 + x_177 + x_178
 + x_179 + x_180 + x_181 + x_182 + x_183 + x_184 + x_185 + x_186 + x_187
 + x_188 + x_189 + x_190 + x_191 + x_192 + x_193 + x_194 + x_195 + x_196
 + x_197 + x_198 + x_199 + x_200 + x_201 + x_202 + x_203 + x_204 + x_205
 + x_206 + x_207 + x_208 + x_209 + x_210 + x_211 + x_52 + x_53 + x_54 + x_55
 + x_56 + x_57 + x_58 + x_59 + x_60 + x_61 + x_62 + x_63 + x_64 + x_65 + x_66
 + x_67 + x_68 + x_69 + x_70 + x_71 + x_72 + x_73 + x_74 + x_75 + x_76 + x_77
 + x_78 + x_79 + x_80 + x_81 + x_82 + x_83 + x_84 + x_85 + x_86 + x_87 + x_88
 + x_89 + x_90 + x_91 + x_92 + x_93 + x_94 + x_95 + x_96 + x_97 + x_98 + x_99
 >= 3
Con_LE5_Defenders: x_100 + x_101 + x_102 + x_103 + x_104 + x_105 + x_106
 + x_107 + x_108 + x_109 + x_110 + x_111 + x_112 + x_113 + x_114 + x_115
 + x_116 + x_117 + x_118 + x_119 + x_120 + x_121 + x_122 + x_123 + x_124
 + x_125 + x_126 + x_127 + x_128 + x_129 + x_130 + x_131 + x_132 + x_133
 + x_134 + x_135 + x_136 + x_137 + x_138 + x_139 + x_140 + x_141 + x_142
 + x_143 + x_144 + x_145 + x_146 + x_147 + x_148 + x_149 + x_150 + x_151
 + x_152 + x_153 + x_154 + x_155 + x_156 + x_157 + x_158 + x_159 + x_160
 + x_161 + x_162 + x_163 + x_164 + x_165 + x_166 + x_167 + x_168 + x_169
 + x_170 + x_171 + x_172 + x_173 + x_174 + x_175 + x_176 + x_177 + x_178
 + x_179 + x_180 + x_181 + x_182 + x_183 + x_184 + x_185 + x_186 + x_187
 + x_188 + x_189 + x_190 + x_191 + x_192 + x_193 + x_194 + x_195 + x_196
 + x_197 + x_198 + x_199 + x_200 + x_201 + x_202 + x_203 + x_204 + x_205
 + x_206 + x_207 + x_208 + x_209 + x_210 + x_211 + x_52 + x_53 + x_54 + x_55
 + x_56 + x_57 + x_58 + x_59 + x_60 + x_61 + x_62 + x_63 + x_64 + x_65 + x_66
 + x_67 + x_68 + x_69 + x_70 + x_71 + x_72 + x_73 + x_74 + x_75 + x_76 + x_77
 + x_78 + x_79 + x_80 + x_81 + x_82 + x_83 + x_84 + x_85 + x_86 + x_87 + x_88
 + x_89 + x_90 + x_91 + x_92 + x_93 + x_94 + x_95 + x_96 + x_97 + x_98 + x_99
 <= 5
Con_LE5_Midfielders: x_212 + x_213 + x_214 + x_215 + x_216 + x_217 + x_218
 + x_219 + x_220 + x_221 + x_222 + x_223 + x_224 + x_225 + x_226 + x_227
 + x_228 + x_229 + x_230 + x_231 + x_232 + x_233 + x_234 + x_235 + x_236
 + x_237 + x_238 + x_239 + x_240 + x_241 + x_242 + x_243 + x_244 + x_245
 + x_246 + x_247 + x_248 + x_249 + x_250 + x_251 + x_252 + x_253 + x_254
 + x_255 + x_256 + x_257 + x_258 + x_259 + x_260 + x_261 + x_262 + x_263
 + x_264 + x_265 + x_266 + x_267 + x_268 + x_269 + x_270 + x_271 + x_272
 + x_273 + x_274 + x_275 + x_276 + x_277 + x_278 + x_279 + x_280 + x_281
 + x_282 + x_283 + x_284 + x_285 + x_286 + x_287 + x_288 + x_289 + x_290
 + x_291 + x_292 + x_293 + x_294 + x_295 + x_296 + x_297 + x_298 + x_299
 + x_300 + x_301 + x_302 + x_303 + x_304 + x_305 + x_306 + x_307 + x_308
 + x_309 + x_310 + x_311 + x_312 + x_313 + x_314 + x_315 + x_316 + x_317
 + x_318 + x_319 + x_320 + x_321 + x_322 + x_323 + x_324 + x_325 + x_326
 + x_327 + x_328 + x_329 + x_330 + x_331 + x_332 + x_333 + x_334 + x_335
 + x_336 + x_337 + x_338 + x_339 + x_340 + x_341 + x_342 + x_343 + x_344
 + x_345 + x_346 + x_347 + x_348 + x_349 + x_350 + x_351 + x_352 + x_353
 + x_354 + x_355 + x_356 + x_357 + x_358 + x_359 + x_360 + x_361 + x_362
 + x_363 + x_364 + x_365 + x_366 + x_367 + x_368 + x_369 + x_370 + x_371
 + x_372 + x_373 + x_374 + x_375 + x_376 + x_377 + x_378 + x_379 + x_380
 + x_381 + x_382 + x_383 + x_384 + x_385 + x_386 + x_387 + x_388 + x_389
 + x_390 + x_391 + x_392 + x_393 + x_394 + x_395 + x_396 + x_397 + x_398
 + x_399 + x_400 + x_401 + x_402 + x_403 + x_404 + x_405 + x_406 + x_407
 + x_408 + x_409 + x_410 + x_411 + x_412 <= 5
Con_LE_MaxARSCount: x_237 + x_238 + x_239 + x_240 + x_241 + x_242 + x_243
 + x_244 + x_245 + x_246 + x_247 + x_248 + x_249 + x_418 + x_419 + x_420 + x_5
 + x_6 + x_66 + x_67 + x_68 + x_69 + x_7 + x_70 + x_71 + x_72 + x_73 + x_74
 <= 3
Con_LE_MaxAVLCount: x_100 + x_101 + x_102 + x_103 + x_104 + x_105 + x_12
 + x_13 + x_14 + x_269 + x_270 + x_271 + x_272 + x_273 + x_274 + x_275 + x_276
 + x_277 + x_278 + x_279 + x_280 + x_428 + x_429 + x_430 + x_431 + x_432
 + x_97 + x_98 + x_99 <= 3
Con_LE_MaxBHACount: x_165 + x_166 + x_167 + x_168 + x_169 + x_170 + x_35
 + x_358 + x_359 + x_36 + x_360 + x_361 + x_362 + x_363 + x_364 + x_365
 + x_366 + x_367 + x_458 + x_459 + x_460 + x_461 + x_462 + x_463 <= 3
Con_LE_MaxBRECount: x_211 + x_411 + x_412 + x_482 + x_51 <= 3
Con_LE_MaxBURCount: x_203 + x_204 + x_205 + x_206 + x_207 + x_208 + x_209
 + x_210 + x_403 + x_404 + x_405 + x_406 + x_407 + x_408 + x_409 + x_410
 + x_47 + x_478 + x_479 + x_48 + x_480 + x_481 + x_49 + x_50 <= 3
Con_LE_MaxCHECount: x_106 + x_107 + x_108 + x_109 + x_110 + x_111 + x_112
 + x_113 + x_114 + x_115 + x_15 + x_16 + x_17 + x_281 + x_282 + x_283 + x_284
 + x_285 + x_286 + x_287 + x_288 + x_289 + x_290 + x_433 + x_434 + x_435
 + x_436 + x_437 <= 3
Con_LE_MaxCRYCount: x_158 + x_159 + x_160 + x_161 + x_162 + x_163 + x_164
 + x_33 + x_34 + x_350 + x_351 + x_352 + x_353 + x_354 + x_355 + x_356 + x_357
 + x_455 + x_456 + x_457 <= 3
Con_LE_MaxEVECount: x_116 + x_117 + x_118 + x_119 + x_120 + x_121 + x_122
 + x_123 + x_18 + x_19 + x_20 + x_291 + x_292 + x_293 + x_294 + x_295 + x_296
 + x_297 + x_298 + x_299 + x_300 + x_301 + x_302 + x_303 + x_304 + x_305
 + x_306 + x_438 + x_439 + x_440 + x_441 + x_442 + x_443 <= 3
Con_LE_MaxLEECount: x_225 + x_226 + x_227 + x_228 + x_229 + x_230 + x_231
 + x_232 + x_233 + x_234 + x_235 + x_236 + x_3 + x_4 + x_416 + x_417 + x_61
 + x_62 + x_63 + x_64 + x_65 <= 3
Con_LE_MaxLEICount: x_124 + x_125 + x_126 + x_127 + x_128 + x_129 + x_130
 + x_131 + x_132 + x_133 + x_21 + x_22 + x_23 + x_307 + x_308 + x_309 + x_310
 + x_311 + x_312 + x_313 + x_314 + x_315 + x_316 + x_444 + x_445 <= 3
Con_LE_MaxLIVCount: x_134 + x_135 + x_136 + x_137 + x_138 + x_139 + x_140
 + x_141 + x_142 + x_24 + x_25 + x_26 + x_317 + x_318 + x_319 + x_320 + x_321
 + x_322 + x_323 + x_324 + x_325 + x_326 + x_327 + x_328 + x_329 + x_330
 + x_446 + x_447 <= 3
Con_LE_MaxMCICount: x_180 + x_181 + x_182 + x_183 + x_184 + x_185 + x_186
 + x_187 + x_377 + x_378 + x_379 + x_380 + x_381 + x_382 + x_383 + x_384
 + x_385 + x_386 + x_387 + x_39 + x_40 + x_41 + x_467 + x_468 <= 3
Con_LE_MaxMUNCount: x_0 + x_1 + x_2 + x_212 + x_213 + x_214 + x_215 + x_216
 + x_217 + x_218 + x_219 + x_220 + x_221 + x_222 + x_223 + x_224 + x_413
 + x_414 + x_415 + x_52 + x_53 + x_54 + x_55 + x_56 + x_57 + x_58 + x_59
 + x_60 <= 3
Con_LE_MaxNEWCount: x_250 + x_251 + x_252 + x_253 + x_254 + x_255 + x_256
 + x_257 + x_258 + x_259 + x_421 + x_422 + x_423 + x_424 + x_425 + x_75 + x_76
 + x_77 + x_78 + x_79 + x_8 + x_80 + x_81 + x_82 + x_83 + x_84 + x_85 + x_86
 + x_9 <= 3
Con_LE_MaxNORCount: x_188 + x_189 + x_190 + x_191 + x_192 + x_193 + x_194
 + x_388 + x_389 + x_390 + x_391 + x_392 + x_393 + x_394 + x_395 + x_42 + x_43
 + x_44 + x_469 + x_470 + x_471 <= 3
Con_LE_MaxSOUCount: x_143 + x_144 + x_145 + x_146 + x_147 + x_27 + x_28 + x_29
 + x_331 + x_332 + x_333 + x_334 + x_335 + x_336 + x_337 + x_338 + x_339
 + x_340 + x_448 + x_449 + x_450 + x_451 + x_452 + x_453 <= 3
Con_LE_MaxTOTCount: x_10 + x_11 + x_260 + x_261 + x_262 + x_263 + x_264
 + x_265 + x_266 + x_267 + x_268 + x_426 + x_427 + x_87 + x_88 + x_89 + x_90
 + x_91 + x_92 + x_93 + x_94 + x_95 + x_96 <= 3
Con_LE_MaxWATCount: x_195 + x_196 + x_197 + x_198 + x_199 + x_200 + x_201
 + x_202 + x_396 + x_397 + x_398 + x_399 + x_400 + x_401 + x_402 + x_45 + x_46
 + x_472 + x_473 + x_474 + x_475 + x_476 + x_477 <= 3
Con_LE_MaxWHUCount: x_148 + x_149 + x_150 + x_151 + x_152 + x_153 + x_154
 + x_155 + x_156 + x_157 + x_30 + x_31 + x_32 + x_341 + x_342 + x_343 + x_344
 + x_345 + x_346 + x_347 + x_348 + x_349 + x_454 <= 3
Con_LE_MaxWOLCount: x_171 + x_172 + x_173 + x_174 + x_175 + x_176 + x_177
 + x_178 + x_179 + x_368 + x_369 + x_37 + x_370 + x_371 + x_372 + x_373
 + x_374 + x_375 + x_376 + x_38 + x_464 + x_465 + x_466 <= 3
Con_LE_SquadCost: 3.7 C_def + 4.4 C_fwd + 3.9 C_gk + 4.3 C_mid + 5.2 x_0
 + 4.7 x_1 + 4.5 x_10 + 5 x_100 + 5.1 x_101 + 4.9 x_102 + 4.5 x_103
 + 4.7 x_104 + 5.1 x_105 + 5.6 x_106 + 5.6 x_107 + 5.6 x_108 + 6.1 x_109
 + 5.4 x_11 + 4.6 x_110 + 5.6 x_111 + 4.5 x_112 + 6.2 x_113 + 4.5 x_114
 + 4.5 x_115 + 4.9 x_116 + 4.7 x_117 + 4.9 x_118 + 4.2 x_119 + 3.9 x_12
 + 4.7 x_120 + 4.4 x_121 + 4 x_122 + 4 x_123 + 5.4 x_124 + 5.2 x_125
 + 3.8 x_126 + 5.3 x_127 + 4.9 x_128 + 4.9 x_129 + 5.5 x_13 + 4.3 x_130
 + 4.3 x_131 + 4.7 x_132 + 4.6 x_133 + 4.9 x_134 + 6.7 x_135 + 7.2 x_136
 + 8.5 x_137 + 4.7 x_138 + 4.2 x_139 + 4 x_14 + 3.7 x_140 + 3.8 x_141
 + 4.4 x_142 + 4.4 x_143 + 4.8 x_144 + 4.4 x_145 + 4.5 x_146 + 3.9 x_147
 + 5.4 x_148 + 4.9 x_149 + 4.6 x_15 + 3.9 x_150 + 5.4 x_151 + 4.9 x_152
 + 4.4 x_153 + 4.4 x_154 + 4.7 x_155 + 4.3 x_156 + 3.9 x_157 + 4.3 x_158
 + 4.5 x_159 + 6.1 x_16 + 3.8 x_160 + 4.5 x_161 + 4.5 x_162 + 4.5 x_163
 + 4.3 x_164 + 4.1 x_165 + 4.8 x_166 + 4.3 x_167 + 4.2 x_168 + 4 x_169
 + 4 x_17 + 4.5 x_170 + 4.9 x_171 + 4.8 x_172 + 5 x_173 + 4.2 x_174
 + 4.5 x_175 + 4.8 x_176 + 4.6 x_177 + 3.9 x_178 + 4.4 x_179 + 4.9 x_18
 + 5.4 x_180 + 5.2 x_181 + 5.2 x_182 + 7 x_183 + 4.7 x_184 + 5.8 x_185
 + 6.2 x_186 + 5.3 x_187 + 3.9 x_188 + 4.4 x_189 + 4 x_19 + 4.4 x_190
 + 4.4 x_191 + 4.3 x_192 + 4.4 x_193 + 4.3 x_194 + 4.2 x_195 + 4.3 x_196
 + 4.3 x_197 + 4.3 x_198 + 4.3 x_199 + 3.9 x_2 + 4 x_20 + 4 x_200 + 4.3 x_201
 + 4.5 x_202 + 4.9 x_203 + 3.9 x_204 + 4.2 x_205 + 4 x_206 + 4.8 x_207
 + 4.4 x_208 + 4.4 x_209 + 4.8 x_21 + 4.5 x_210 + 4.5 x_211 + 4.3 x_212
 + 7.4 x_213 + 4.9 x_214 + 6.7 x_215 + 11.6 x_216 + 9.4 x_217 + 5.4 x_218
 + 7.1 x_219 + 4 x_22 + 4.7 x_220 + 5 x_221 + 4.8 x_222 + 5 x_223 + 4.5 x_224
 + 5.5 x_225 + 5.2 x_226 + 4.9 x_227 + 4.7 x_228 + 5.4 x_229 + 3.9 x_23
 + 4.8 x_230 + 4.5 x_231 + 6.5 x_232 + 4.4 x_233 + 5.5 x_234 + 6 x_235
 + 4.5 x_236 + 6.3 x_237 + 4.8 x_238 + 4.4 x_239 + 4.3 x_24 + 5.2 x_240
 + 5 x_241 + 6.9 x_242 + 4.5 x_243 + 5.8 x_244 + 6.5 x_245 + 4.5 x_246
 + 5.3 x_247 + 5 x_248 + 5.5 x_249 + 6 x_25 + 5.8 x_250 + 5.3 x_251
 + 4.8 x_252 + 5.3 x_253 + 4.7 x_254 + 4.5 x_255 + 5.1 x_256 + 4.4 x_257
 + 4.5 x_258 + 4.5 x_259 + 4.3 x_26 + 6 x_260 + 10.8 x_261 + 6.2 x_262
 + 4.9 x_263 + 4.4 x_264 + 5.9 x_265 + 5.9 x_266 + 4.4 x_267 + 5.7 x_268
 + 4.9 x_269 + 4.4 x_27 + 5.7 x_270 + 5 x_271 + 5.7 x_272 + 5.4 x_273
 + 4.4 x_274 + 6.2 x_275 + 4.4 x_276 + 4.8 x_277 + 5 x_278 + 4.5 x_279
 + 4.4 x_28 + 7.4 x_280 + 5.8 x_281 + 5.2 x_282 + 5 x_283 + 4.9 x_284
 + 7.3 x_285 + 5.4 x_286 + 7.9 x_287 + 7.5 x_288 + 5.3 x_289 + 4.3 x_29
 + 7.8 x_290 + 5.6 x_291 + 4.3 x_292 + 6.7 x_293 + 6.9 x_294 + 5.5 x_295
 + 4.3 x_296 + 4.9 x_297 + 5.3 x_298 + 5.8 x_299 + 4.5 x_3 + 4.3 x_30
 + 4.8 x_300 + 5.7 x_301 + 6.2 x_302 + 5.2 x_303 + 5.5 x_304 + 4.5 x_305
 + 4.4 x_306 + 5.2 x_307 + 4.3 x_308 + 4.9 x_309 + 5 x_31 + 6.4 x_310
 + 5.7 x_311 + 6.8 x_312 + 4.4 x_313 + 6.5 x_314 + 4.8 x_315 + 6 x_316
 + 4.9 x_317 + 5 x_318 + 5.3 x_319 + 4.7 x_32 + 5.9 x_320 + 5.8 x_321
 + 11.7 x_322 + 5.4 x_323 + 13.2 x_324 + 5.1 x_325 + 5 x_326 + 8.3 x_327
 + 5 x_328 + 5.3 x_329 + 4.6 x_33 + 4.5 x_330 + 5.8 x_331 + 4.5 x_332
 + 5.9 x_333 + 5.8 x_334 + 6.6 x_335 + 4.7 x_336 + 4.5 x_337 + 4.5 x_338
 + 5.2 x_339 + 4.4 x_34 + 5.4 x_340 + 4.4 x_341 + 5.1 x_342 + 5.7 x_343
 + 5.9 x_344 + 7 x_345 + 5.1 x_346 + 5.7 x_347 + 6 x_348 + 5.6 x_349
 + 4.5 x_35 + 6.2 x_350 + 4.3 x_351 + 5.3 x_352 + 6.8 x_353 + 5.4 x_354
 + 4.7 x_355 + 5.9 x_356 + 4.7 x_357 + 5.3 x_358 + 5.7 x_359 + 4.6 x_36
 + 4.5 x_360 + 5.3 x_361 + 5.9 x_362 + 5.5 x_363 + 4.4 x_364 + 4.8 x_365
 + 5.2 x_366 + 4.5 x_367 + 4.9 x_368 + 4.7 x_369 + 5 x_37 + 5.6 x_370
 + 5.3 x_371 + 5.5 x_372 + 4.5 x_373 + 6.4 x_374 + 4.5 x_375 + 4.5 x_376
 + 7.5 x_377 + 7.1 x_378 + 11.8 x_379 + 4.3 x_38 + 8.7 x_380 + 10.7 x_381
 + 7.2 x_382 + 7.9 x_383 + 5.5 x_384 + 6.7 x_385 + 4.7 x_386 + 4.5 x_387
 + 4.3 x_388 + 5 x_389 + 6.1 x_39 + 4.4 x_390 + 4.9 x_391 + 4.9 x_392
 + 5.1 x_393 + 5.3 x_394 + 5 x_395 + 4.4 x_396 + 4.7 x_397 + 4.8 x_398
 + 5 x_399 + 4.8 x_4 + 4.4 x_40 + 5.2 x_400 + 4.5 x_401 + 5.7 x_402
 + 4.4 x_403 + 4.4 x_404 + 5.3 x_405 + 5.4 x_406 + 4.3 x_407 + 4.5 x_408
 + 5.7 x_409 + 3.9 x_41 + 4.9 x_410 + 5.5 x_411 + 5.5 x_412 + 8.4 x_413
 + 7.6 x_414 + 12.3 x_415 + 6.2 x_416 + 7.7 x_417 + 9.6 x_418 + 8.3 x_419
 + 3.9 x_42 + 5.4 x_420 + 6.7 x_421 + 7.2 x_422 + 5.2 x_423 + 6.8 x_424
 + 5.8 x_425 + 12.3 x_426 + 4.5 x_427 + 7.5 x_428 + 5.4 x_429 + 4.5 x_43
 + 5.5 x_430 + 4.5 x_431 + 7.7 x_432 + 6.5 x_433 + 5.5 x_434 + 8.6 x_435
 + 6.5 x_436 + 11.5 x_437 + 7.7 x_438 + 7.5 x_439 + 4 x_44 + 4.5 x_440
 + 6 x_441 + 6 x_442 + 5 x_443 + 10.3 x_444 + 6.9 x_445 + 8.7 x_446
 + 4.8 x_447 + 4.5 x_448 + 7 x_449 + 4.1 x_45 + 4.5 x_450 + 5.5 x_451
 + 5.4 x_452 + 5.7 x_453 + 7.6 x_454 + 6 x_455 + 5.8 x_456 + 5.2 x_457
 + 6.5 x_458 + 5.3 x_459 + 4 x_46 + 5.9 x_460 + 5 x_461 + 4.5 x_462
 + 4.4 x_463 + 7.6 x_464 + 5.6 x_465 + 5 x_466 + 8.4 x_467 + 4.5 x_468
 + 5.8 x_469 + 5.4 x_47 + 5.4 x_470 + 4.9 x_471 + 5.4 x_472 + 5.4 x_473
 + 5 x_474 + 4.8 x_475 + 5.4 x_476 + 5.8 x_477 + 5.2 x_478 + 5.2 x_479
 + 4.4 x_48 + 5.2 x_480 + 4.4 x_481 + 6.5 x_482 + 4.5 x_49 + 4.5 x_5
 + 4.5 x_50 + 4.5 x_51 + 5.4 x_52 + 5 x_53 + 5 x_54 + 4.4 x_55 + 4.8 x_56
 + 4.9 x_57 + 5.1 x_58 + 4.4 x_59 + 4 x_6 + 4.5 x_60 + 4.4 x_61 + 4.3 x_62
 + 4.5 x_63 + 4.3 x_64 + 4.3 x_65 + 4.2 x_66 + 4.2 x_67 + 4.8 x_68 + 4.2 x_69
 + 5.1 x_7 + 4.1 x_70 + 5.1 x_71 + 5.3 x_72 + 4.5 x_73 + 4.5 x_74 + 4.7 x_75
 + 4.4 x_76 + 4.9 x_77 + 4.4 x_78 + 4.4 x_79 + 4.5 x_8 + 4.5 x_80 + 3.9 x_81
 + 4.3 x_82 + 4.3 x_83 + 4.2 x_84 + 4.3 x_85 + 5 x_86 + 5 x_87 + 4.9 x_88
 + 4.7 x_89 + 4.4 x_9 + 4.6 x_90 + 4.4 x_91 + 4.5 x_92 + 4.3 x_93 + 5.2 x_94
 + 4.2 x_95 + 4.2 x_96 + 4.2 x_97 + 4.5 x_98 + 4.4 x_99 <= 100
Bounds
 C_def free
 C_fwd free
 C_gk free
 C_mid free
 __dummy = 0
Binaries
x_0
x_1
x_10
x_100
x_101
x_102
x_103
x_104
x_105
x_106
x_107
x_108
x_109
x_11
x_110
x_111
x_112
x_113
x_114
x_115
x_116
x_117
x_118
x_119
x_12
x_120
x_121
x_122
x_123
x_124
x_125
x_126
x_127
x_128
x_129
x_13
x_130
x_131
x_132
x_133
x_134
x_135
x_136
x_137
x_138
x_139
x_14
x_140
x_141
x_142
x_143
x_144
x_145
x_146
x_147
x_148
x_149
x_15
x_150
x_151
x_152
x_153
x_154
x_155
x_156
x_157
x_158
x_159
x_16
x_160
x_161
x_162
x_163
x_164
x_165
x_166
x_167
x_168
x_169
x_17
x_170
x_171
x_172
x_173
x_174
x_175
x_176
x_177
x_178
x_179
x_18
x_180
x_181
x_182
x_183
x_184
x_185
x_186
x_187
x_188
x_189
x_19
x_190
x_191
x_192
x_193
x_194
x_195
x_196
x_197
x_198
x_199
x_2
x_20
x_200
x_201
x_202
x_203
x_204
x_205
x_206
x_207
x_208
x_209
x_21
x_210
x_211
x_212
x_213
x_214
x_215
x_216
x_217
x_218
x_219
x_22
x_220
x_221
x_222
x_223
x_224
x_225
x_226
x_227
x_228
x_229
x_23
x_230
x_231
x_232
x_233
x_234
x_235
x_236
x_237
x_238
x_239
x_24
x_240
x_241
x_242
x_243
x_244
x_245
x_246
x_247
x_248
x_249
x_25
x_250
x_251
x_252
x_253
x_254
x_255
x_256
x_257
x_258
x_259
x_26
x_260
x_261
x_262
x_263
x_264
x_265
x_266
x_267
x_268
x_269
x_27
x_270
x_271
x_272
x_273
x_274
x_275
x_276
x_277
x_278
x_279
x_28
x_280
x_281
x_282
x_283
x_284
x_285
x_286
x_287
x_288
x_289
x_29
x_290
x_291
x_292
x_293
x_294
x_295
x_296
x_297
x_298
x_299
x_3
x_30
x_300
x_301
x_302
x_303
x_304
x_305
x_306
x_307
x_308
x_309
x_31
x_310
x_311
x_312
x_313
x_314
x_315
x_316
x_317
x_318
x_319
x_32
x_320
x_321
x_322
x_323
x_324
x_325
x_326
x_327
x_328
x_329
x_33
x_330
x_331
x_332
x_333
x_334
x_335
x_336
x_337
x_338
x_339
x_34
x_340
x_341
x_342
x_343
x_344
x_345
x_346
x_347
x_348
x_349
x_35
x_350
x_351
x_352
x_353
x_354
x_355
x_356
x_357
x_358
x_359
x_36
x_360
x_361
x_362
x_363
x_364
x_365
x_366
x_367
x_368
x_369
x_37
x_370
x_371
x_372
x_373
x_374
x_375
x_376
x_377
x_378
x_379
x_38
x_380
x_381
x_382
x_383
x_384
x_385
x_386
x_387
x_388
x_389
x_39
x_390
x_391
x_392
x_393
x_394
x_395
x_396
x_397
x_398
x_399
x_4
x_40
x_400
x_401
x_402
x_403
x_404
x_405
x_406
x_407
x_408
x_409
x_41
x_410
x_411
x_412
x_413
x_414
x_415
x_416
x_417
x_418
x_419
x_42
x_420
x_421
x_422
x_423
x_424
x_425
x_426
x_427
x_428
x_429
x_43
x_430
x_431
x_432
x_433
x_434
x_435
x_436
x_437
x_438
x_439
x_44
x_440
x_441
x_442
x_443
x_444
x_445
x_446
x_447
x_448
x_449
x_45
x_450
x_451
x_452
x_453
x_454
x_455
x_456
x_457
x_458
x_459
x_46
x_460
x_461
x_462
x_463
x_464
x_465
x_466
x_467
x_468
x_469
x_47
x_470
x_471
x_472
x_473
x_474
x_475
x_476
x_477
x_478
x_479
x_48
x_480
x_481
x_482
x_49
x_5
x_50
x_51
x_52
x_53
x_54
x_55
x_56
x_57
x_58
x_59
x_6
x_60
x_61
x_62
x_63
x_64
x_65
x_66
x_67
x_68
x_69
x_7
x_70
x_71
x_72
x_73
x_74
x_75
x_76
x_77
x_78
x_79
x_8
x_80
x_81
x_82
x_83
x_84
x_85
x_86
x_87
x_88
x_89
x_9
x_90
x_91
x_92
x_93
x_94
x_95
x_96
x_97
x_98
x_99
End
